c FILE /home/rafael/Documents/HappySet/MIHS/inputs/happygen/output/graph_scale_free_k4_p0.3_v50_20241127_082429.txt
c SOURCE This is a scale-free graph formed for the happy graph colouring problem.
c DESCRIPTION It was generated using the problem generator of Rhyd Lewis
c
c GRAPH STATS
c Seed                             = 891500520
c Number of Nodes                  = 50
c Number of colours k              = 4
c Number of pre-assignments        = 15
c Number of links per new node     = 5
c Density                          = 0.191837
c 
c The degrees of nodes 1 to 50, respectively, are as follows 
c [24, 22, 22, 20, 20, 19, 19, 19, 17, 14, 12, 12, 10, 10, 9, 9, 9, 9, 8, 8, 8, 8, 8, 7, 7, 7, 
c  7, 6, 6, 6, 6, 6, 6, 6, 6, 6, 6, 6, 5, 5, 5, 5, 5, 5, 5, 5, 5, 5, 5, 5] 
c  
p edge 50 235 4
e 1 2
e 1 3
e 1 4
e 1 5
e 1 6
e 1 7
e 1 8
e 1 10
e 1 13
e 1 14
e 1 16
e 1 17
e 1 19
e 1 23
e 1 24
e 1 28
e 1 30
e 1 32
e 1 33
e 1 34
e 1 39
e 1 46
e 1 47
e 1 49
e 2 3
e 2 4
e 2 5
e 2 6
e 2 7
e 2 8
e 2 9
e 2 10
e 2 12
e 2 15
e 2 17
e 2 24
e 2 27
e 2 29
e 2 30
e 2 35
e 2 38
e 2 40
e 2 41
e 2 48
e 2 50
e 3 4
e 3 5
e 3 6
e 3 7
e 3 8
e 3 9
e 3 10
e 3 11
e 3 13
e 3 16
e 3 19
e 3 22
e 3 23
e 3 25
e 3 27
e 3 28
e 3 32
e 3 41
e 3 43
e 3 45
e 4 5
e 4 6
e 4 8
e 4 9
e 4 11
e 4 13
e 4 14
e 4 15
e 4 16
e 4 18
e 4 20
e 4 28
e 4 31
e 4 33
e 4 39
e 4 42
e 4 44
e 5 6
e 5 7
e 5 8
e 5 9
e 5 13
e 5 14
e 5 15
e 5 16
e 5 20
e 5 24
e 5 28
e 5 34
e 5 40
e 5 47
e 5 48
e 5 50
e 6 7
e 6 10
e 6 11
e 6 13
e 6 14
e 6 17
e 6 20
e 6 21
e 6 23
e 6 36
e 6 37
e 6 39
e 6 41
e 6 44
e 7 11
e 7 14
e 7 17
e 7 22
e 7 23
e 7 25
e 7 27
e 7 30
e 7 31
e 7 32
e 7 33
e 7 36
e 7 37
e 7 46
e 8 9
e 8 10
e 8 11
e 8 15
e 8 16
e 8 18
e 8 21
e 8 25
e 8 26
e 8 30
e 8 35
e 8 38
e 8 42
e 8 43
e 9 12
e 9 24
e 9 25
e 9 26
e 9 29
e 9 31
e 9 39
e 9 40
e 9 44
e 9 47
e 9 48
e 9 50
e 10 15
e 10 18
e 10 21
e 10 22
e 10 26
e 10 30
e 10 35
e 10 45
e 10 50
e 11 12
e 11 24
e 11 27
e 11 32
e 11 34
e 11 38
e 11 48
e 12 19
e 12 20
e 12 25
e 12 27
e 12 31
e 12 41
e 12 42
e 12 45
e 12 48
e 13 18
e 13 28
e 13 37
e 13 39
e 13 46
e 14 26
e 14 29
e 14 31
e 14 33
e 14 49
e 15 18
e 15 22
e 15 26
e 15 44
e 16 19
e 16 29
e 16 33
e 16 36
e 17 19
e 17 20
e 17 22
e 17 24
e 17 47
e 18 19
e 18 21
e 18 34
e 18 35
e 19 21
e 19 40
e 20 28
e 20 29
e 20 46
e 21 32
e 21 37
e 21 47
e 22 35
e 22 40
e 22 42
e 23 33
e 23 37
e 23 38
e 23 43
e 24 41
e 25 36
e 25 45
e 26 36
e 26 43
e 27 49
e 27 50
e 29 38
e 30 34
e 31 46
e 32 42
e 34 43
e 35 44
e 36 45
e 37 49
e 38 49
n 2 1
n 11 4
n 14 3
n 16 2
n 18 2
n 22 1
n 26 3
n 28 4
n 32 4
n 37 1
n 40 1
n 43 3
n 44 2
n 45 1
n 46 2
